nNurses = 137;
nHours = 28;
minHours = 6;
maxHours = 8;
maxConsec = 7;
maxPresence = 15;
demand = [24, 20, 25, 25, 21, 17, 22, 18, 14, 12, 12, 15, 13, 14, 13, 15, 20, 19, 15, 12, 17, 18, 15, 11, 8, 13, 17, 16];
